CPXPARAM_Emphasis_MIP#P8#2#CPXPARAM_MIP_Cuts_Cliques#P13#2#0.779682#0.195222
CPXPARAM_Emphasis_MIP#P8#2#CPXPARAM_MIP_Cuts_Covers#P14#0#0.779632#0.195209
CPXPARAM_Emphasis_MIP#P8#2#CPXPARAM_MIP_Cuts_Covers#P14#1#0.765387#0.191642
CPXPARAM_Emphasis_MIP#P8#2#CPXPARAM_MIP_Cuts_Disjunctive#P15#2#0.765291#0.191618
CPXPARAM_Emphasis_MIP#P8#2#CPXPARAM_MIP_Cuts_Gomory#P18#2#3.993827#1.000000
CPXPARAM_Emphasis_MIP#P8#2#CPXPARAM_MIP_Cuts_MIRCut#P20#2#0.765342#0.191631
CPXPARAM_Emphasis_MIP#P8#2#CPXPARAM_MIP_Cuts_PathCut#P21#0#0.765353#0.191634
CPXPARAM_Emphasis_MIP#P8#2#CPXPARAM_MIP_Cuts_PathCut#P21#2#0.765327#0.191628
CPXPARAM_Emphasis_MIP#P8#2#CPXPARAM_MIP_Limits_GomoryCand#P25#400#0.765326#0.191627
